letting np_cars_plus be 147
letting np_classes be 78
letting np_options be 18
letting quantity_range_min be 2
letting quantity_range_delta be 6
letting maxcars_range_min be 2
letting maxcars_range_delta be 1
letting blksize_delta_range_min be 8
letting blksize_delta_range_delta be 1
letting usage_card_min be 93
letting usage_card_delta be 93